0063	0
0032	0
0072	0
0013	0
0055	0
0043	0
0003	1
0075	1
0020	1
0021	1
0058	1
0051	1
0080	2
0026	2
0050	2
0025	2
0046	3
0018	3
0065	3
0017	3
0073	4
0060	4
0036	4
0054	4
0006	4
0008	4
0009	5
0007	5
0068	5
0031	5
0042	5
0016	5
0005	5
0079	6
0030	6
0038	6
0047	6
0077	7
0067	7
0064	7
0023	7
0048	7
0001	8
0029	8
0059	8
0028	8
0002	9
0033	9
0057	9
0041	9
0022	10
0044	10
0076	11
0024	11
0037	11
0078	12
0019	12
0049	12
0035	12
0066	13
0011	13
0069	13
0053	13
0062	13
0012	14
0014	14
0040	14
0071	14
0027	15
0070	15
0015	16
0056	16
0010	16
0074	17
0081	17
0052	17
0004	17
0045	17
0034	17
0039	17
0061	17
